6239
1 0 0 0 1 0 0 0 1 0 0 1 0 0 1 0 0 1 0 0 
0 0 0 0 0 0 0 0 0 0 4 4 4 4 4 4 4 4 4 4 4 4 4 4 4 4 4 4 4 4 4 8 8 8 8 8 11 8 8 8 8 8 11 11 11 11 11 11 11 17 11 11 4 11 8 14 14 11 14 11 0 14 14 14 14 17 17 17 17 17 17 17 17 17 17 17 17 17 0 17 
